h = 39;
w = 39;
n_pieces = 29;
n_shapes = 55;
shape = [{1}, {2}, {3}, {4}, {5}, {6}, {7}, {8}, {9}, {10}, {11}, {12}, {13}, {14}, {15}, {16}, {17}, {18}, {19}, {20}, {21}, {22}, {23}, {24}, {25}, {26}, {27}, {28}, {29}, {30}, {31}, {32}, {33}, {34}, {35}, {36}, {37}, {38}, {39}, {40}, {41}, {42}, {43}, {44}, {45}, {46}, {47}, {48}, {49}, {50}, {51}, {52}, {53}, {54}, {55}];
shape_index = [{1}, {2, 3}, {4, 5}, {6, 7}, {8, 9}, {10, 11}, {12, 13}, {14, 15}, {16, 17}, {18, 19}, {20, 21}, {22}, {23, 24}, {25, 26}, {27, 28}, {29, 30}, {31, 32}, {33, 34}, {35, 36}, {37, 38}, {39, 40}, {41}, {42, 43}, {44, 45}, {46, 47}, {48, 49}, {50, 51}, {52, 53}, {54, 55}];
rect_rep = [1, 1, 1, 1, 1, 1, 1, 1, 1, 1, 1, 1, 1, 1, 1, 1, 1, 1, 1, 1, 1, 1, 1, 1, 1, 1, 1, 1, 1];
rect_copies = 29;
coordinate_shapes = [0, 1, 2, 3, 4, 5, 6, 7, 8, 9, 10, 11, 12, 13, 14, 15, 16, 17, 18, 19, 20, 21, 22, 23, 24, 25, 26, 27, 28];
rect_size = [|3, 3
|3, 4
|4, 3
|3, 5
|5, 3
|3, 6
|6, 3
|3, 7
|7, 3
|3, 8
|8, 3
|3, 9
|9, 3
|3, 10
|10, 3
|3, 11
|11, 3
|3, 15
|15, 3
|4, 3
|3, 4
|4, 4
|4, 5
|5, 4
|4, 6
|6, 4
|4, 8
|8, 4
|4, 9
|9, 4
|4, 12
|12, 4
|4, 15
|15, 4
|4, 16
|16, 4
|5, 3
|3, 5
|5, 4
|4, 5
|5, 5
|5, 6
|6, 5
|5, 8
|8, 5
|5, 10
|10, 5
|5, 11
|11, 5
|5, 13
|13, 5
|5, 18
|18, 5
|15, 39
|39, 15
|];
rect_offset = [|0, 0
|0, 0
|0, 0
|0, 0
|0, 0
|0, 0
|0, 0
|0, 0
|0, 0
|0, 0
|0, 0
|0, 0
|0, 0
|0, 0
|0, 0
|0, 0
|0, 0
|0, 0
|0, 0
|0, 0
|0, 0
|0, 0
|0, 0
|0, 0
|0, 0
|0, 0
|0, 0
|0, 0
|0, 0
|0, 0
|0, 0
|0, 0
|0, 0
|0, 0
|0, 0
|0, 0
|0, 0
|0, 0
|0, 0
|0, 0
|0, 0
|0, 0
|0, 0
|0, 0
|0, 0
|0, 0
|0, 0
|0, 0
|0, 0
|0, 0
|0, 0
|0, 0
|0, 0
|0, 0
|0, 0
|];
rectangles = [|3, 3
|3, 4
|3, 5
|3, 6
|3, 7
|3, 8
|3, 9
|3, 10
|3, 11
|3, 15
|4, 3
|4, 4
|4, 5
|4, 6
|4, 8
|4, 9
|4, 12
|4, 15
|4, 16
|5, 3
|5, 4
|5, 5
|5, 6
|5, 8
|5, 10
|5, 11
|5, 13
|5, 18
|15, 39
|];
